99779 99764 62 994
99779 99764 47 995
99779 99764 47 996
99779 99764 31 997
99779 99764 47 998
99779 99764 47 999
99779 99764 31 1000
99779 99764 47 1001
99779 99764 31 1002
99779 99764 47 1003
99779 99764 31 1004
99779 99764 47 1005
99779 99764 47 1006
99779 99764 31 1007
99779 99764 47 1008
99779 99764 32 1009
99779 99764 46 1010
99779 99764 32 1011
99779 99764 47 1012
99779 99764 46 1013
99779 99764 32 1014
99779 99764 47 1015
99779 99764 46 1016
99779 99764 32 1017
99779 99764 47 1018
99779 99764 46 1019
99779 99764 47 1020
99779 99764 47 1021
99779 99764 31 1022
99779 99764 47 1023
